
  32    4
  10   10   10   10

   0   0   0   0   0   2 2 3 
   1  10  10  10  10   2 5 4 
   4  10  10  10  10   1 4 
   8  10  10  10  10   4 11 8 7 6 
  10  10  10  10  10   4 11 8 7 6 
   1  10  10  10  10   1 9 
   7  10  10  10  10   1 9 
  10  10  10  10  10   1 9 
   3  10  10  10  10   2 13 10 
   9  10  10  10  10   2 15 12 
   6  10  10  10  10   2 14 13 
   1  10  10  10  10   2 16 14 
   4  10  10  10  10   2 17 16 
   9  10  10  10  10   1 17 
  10  10  10  10  10   1 16 
   1  10  10  10  10   2 19 18 
  10  10  10  10  10   2 19 18 
   1  10  10  10  10   2 21 20 
   2  10  10  10  10   2 22 21 
   2  10  10  10  10   2 23 22 
   2  10  10  10  10   3 27 25 23 
   5  10  10  10  10   3 27 25 24 
   5  10  10  10  10   1 24 
  10  10  10  10  10   3 30 29 28 
   3  10  10  10  10   2 29 26 
   9  10  10  10  10   1 28 
   2  10  10  10  10   1 28 
   9  10  10  10  10   1 31 
   8  10  10  10  10   1 31 
   4  10  10  10  10   1 31 
   2  10  10  10  10   1 32
   0   0   0   0   0   0 
